15
0 5 141 15 424 148 62 267 763 223 95 140 308 115 48
5 0 136 40 21 55 57 231 405 92 35 12 322 48 241
141 136 0 307 567 35 534 743 558 558 270 24 87 393 175
15 40 307 0 121 84 257 419 22 70 193 144 258 334 43
424 21 567 121 0 225 301 886 205 175 97 308 40 417 70
148 55 35 84 225 0 804 86 17 88 409 544 99 64 341
62 57 534 257 301 804 0 212 732 65 186 84 52 480 552
267 231 743 419 886 86 212 0 179 128 247 453 645 39 70
763 405 558 22 205 17 732 179 0 341 541 248 17 460 67
223 92 558 70 175 88 65 128 341 0 448 116 60 283 38
95 35 270 193 97 409 186 247 541 448 0 0 168 115 180
140 12 24 144 308 544 84 453 248 116 0 0 466 149 300
308 322 87 258 40 99 52 645 17 60 168 466 0 31 767
115 48 393 334 417 64 480 39 460 283 115 149 31 0 268
48 241 175 43 70 341 552 70 67 38 180 300 767 268 0